* #variable= 1097 #constraint= 381
min: +92 x1 +2 x2 +63 x3 +94 x4 +13 x5 +21 x6 +84 x7 +88 x8 +6 x9 +27 x10 +89 x11 +46 x12 +80 x13 +4 x14 +63 x15 +7 x16 +21 x17 +25 x18 +18 x19 +87 x20 +70 x21 +15 x22 +80 x23 +18 x24 +41 x25 +85 x26 +15 x27 +33 x28 +85 x29 +56 x30 +73 x31 +85 x32 +31 x33 +26 x34 +33 x35 +23 x36 +22 x37 +93 x38 +83 x39 +27 x40 +55 x41 +9 x42 +55 x43 +51 x44 +23 x45 +56 x46 +14 x47 +74 x48 +76 x49 +72 x50 +44 x51 +99 x52 +38 x53 +8 x54 +61 x55 +42 x56 +49 x57 +19 x58 +82 x59 +91 x60 +41 x61 +8 x62 +59 x63 +47 x64 +89 x65 +19 x66 +67 x67 +20 x68 +53 x69 +24 x70 +5 x71 +69 x72 +55 x73 +80 x74 +64 x75 +70 x76 +11 x77 +71 x78 +44 x79 +98 x80 +89 x81 +14 x82 +44 x83 +35 x84 +73 x85 +1 x86 +23 x87 +40 x88 +53 x89 +42 x90 +36 x91 +62 x92 +16 x93 +15 x94 +63 x95 +72 x96 +32 x97 +81 x98 +15 x99 +40 x100 +92 x101 +83 x102 +80 x103 +87 x104 +99 x105 +45 x106 +81 x107 +7 x108 +94 x109 +67 x110 +22 x111 +19 x112 +49 x113 +67 x114 +1 x115 +70 x116 +71 x117 +79 x118 +90 x119 +53 x120 +72 x121 +2 x122 +78 x123 +44 x124 +82 x125 +3 x126 +34 x127 +13 x128 +95 x129 +56 x130 +23 x131 +22 x132 +91 x133 +86 x134 +78 x135 +73 x136 +44 x137 +62 x138 +50 x139 +80 x140 +67 x141 +61 x142 +52 x143 +37 x144 +29 x145 +63 x146 +1 x147 +8 x148 +7 x149 +45 x150 +13 x151 +44 x152 +66 x153 +92 x154 +53 x155 +7 x156 +23 x157 +89 x158 +88 x159 +65 x160 +84 x161 +9 x162 +15 x163 +72 x164 +84 x165 +83 x166 +62 x167 +3 x168 +61 x169 +72 x170 +44 x171 +59 x172 +9 x173 +30 x174 +87 x175 +31 x176 +3 x177 +7 x178 +41 x179 +9 x180 +52 x181 +27 x182 ;

+92 x1 +2 x2 +63 x3 +94 x4 +13 x5 +21 x6 +84 x7 +88 x8 +6 x9 +27 x10 +89 x11 +46 x12 +80 x13 +4 x14 +63 x15 +7 x16 +21 x17 +25 x18 +18 x19 +87 x20 +70 x21 +15 x22 +80 x23 +18 x24 +41 x25 +85 x26 +15 x27 +33 x28 +85 x29 +56 x30 +73 x31 +85 x32 +31 x33 +26 x34 +33 x35 +23 x36 +22 x37 +93 x38 +83 x39 +27 x40 +55 x41 +9 x42 +55 x43 +51 x44 +23 x45 +56 x46 +14 x47 +74 x48 +76 x49 +72 x50 +44 x51 +99 x52 +38 x53 +8 x54 +61 x55 +42 x56 +49 x57 +19 x58 +82 x59 +91 x60 +41 x61 +8 x62 +59 x63 +47 x64 +89 x65 +19 x66 +67 x67 +20 x68 +53 x69 +24 x70 +5 x71 +69 x72 +55 x73 +80 x74 +64 x75 +70 x76 +11 x77 +71 x78 +44 x79 +98 x80 +89 x81 +14 x82 +44 x83 +35 x84 +73 x85 +1 x86 +23 x87 +40 x88 +53 x89 +42 x90 +36 x91 +62 x92 +16 x93 +15 x94 +63 x95 +72 x96 +32 x97 +81 x98 +15 x99 +40 x100 +92 x101 +83 x102 +80 x103 +87 x104 +99 x105 +45 x106 +81 x107 +7 x108 +94 x109 +67 x110 +22 x111 +19 x112 +49 x113 +67 x114 +1 x115 +70 x116 +71 x117 +79 x118 +90 x119 +53 x120 +72 x121 +2 x122 +78 x123 +44 x124 +82 x125 +3 x126 +34 x127 +13 x128 +95 x129 +56 x130 +23 x131 +22 x132 +91 x133 +86 x134 +78 x135 +73 x136 +44 x137 +62 x138 +50 x139 +80 x140 +67 x141 +61 x142 +52 x143 +37 x144 +29 x145 +63 x146 +1 x147 +8 x148 +7 x149 +45 x150 +13 x151 +44 x152 +66 x153 +92 x154 +53 x155 +7 x156 +23 x157 +89 x158 +88 x159 +65 x160 +84 x161 +9 x162 +15 x163 +72 x164 +84 x165 +83 x166 +62 x167 +3 x168 +61 x169 +72 x170 +44 x171 +59 x172 +9 x173 +30 x174 +87 x175 +31 x176 +3 x177 +7 x178 +41 x179 +9 x180 +52 x181 +27 x182 >= 0 ;

+1 x1 +1 x2 +1 x3 +1 x4 +1 x5 +1 x6 +1 x7 +1 x8 +1 x9 +1 x10 +1 x11 +1 x12 +1 x13 = 1 ;
+1 x14 +1 x15 +1 x16 +1 x17 +1 x18 +1 x19 +1 x20 +1 x21 +1 x22 +1 x23 +1 x24 +1 x25 +1 x26 = 1 ;
+1 x27 +1 x28 +1 x29 +1 x30 +1 x31 +1 x32 +1 x33 +1 x34 +1 x35 +1 x36 +1 x37 +1 x38 +1 x39 = 1 ;
+1 x40 +1 x41 +1 x42 +1 x43 +1 x44 +1 x45 +1 x46 +1 x47 +1 x48 +1 x49 +1 x50 +1 x51 +1 x52 = 1 ;
+1 x53 +1 x54 +1 x55 +1 x56 +1 x57 +1 x58 +1 x59 +1 x60 +1 x61 +1 x62 +1 x63 +1 x64 +1 x65 = 1 ;
+1 x66 +1 x67 +1 x68 +1 x69 +1 x70 +1 x71 +1 x72 +1 x73 +1 x74 +1 x75 +1 x76 +1 x77 +1 x78 = 1 ;
+1 x79 +1 x80 +1 x81 +1 x82 +1 x83 +1 x84 +1 x85 +1 x86 +1 x87 +1 x88 +1 x89 +1 x90 +1 x91 = 1 ;
+1 x92 +1 x93 +1 x94 +1 x95 +1 x96 +1 x97 +1 x98 +1 x99 +1 x100 +1 x101 +1 x102 +1 x103 +1 x104 = 1 ;
+1 x105 +1 x106 +1 x107 +1 x108 +1 x109 +1 x110 +1 x111 +1 x112 +1 x113 +1 x114 +1 x115 +1 x116 +1 x117 = 1 ;
+1 x118 +1 x119 +1 x120 +1 x121 +1 x122 +1 x123 +1 x124 +1 x125 +1 x126 +1 x127 +1 x128 +1 x129 +1 x130 = 1 ;
+1 x131 +1 x132 +1 x133 +1 x134 +1 x135 +1 x136 +1 x137 +1 x138 +1 x139 +1 x140 +1 x141 +1 x142 +1 x143 = 1 ;
+1 x144 +1 x145 +1 x146 +1 x147 +1 x148 +1 x149 +1 x150 +1 x151 +1 x152 +1 x153 +1 x154 +1 x155 +1 x156 = 1 ;
+1 x157 +1 x158 +1 x159 +1 x160 +1 x161 +1 x162 +1 x163 +1 x164 +1 x165 +1 x166 +1 x167 +1 x168 +1 x169 = 1 ;
+1 x170 +1 x171 +1 x172 +1 x173 +1 x174 +1 x175 +1 x176 +1 x177 +1 x178 +1 x179 +1 x180 +1 x181 +1 x182 = 1 ;

+1 x14 +1 x27 +1 x40 +1 x53 +1 x66 +1 x79 +1 x92 +1 x105 +1 x118 +1 x131 +1 x144 +1 x157 +1 x170 = 1 ;
+1 x1 +1 x28 +1 x41 +1 x54 +1 x67 +1 x80 +1 x93 +1 x106 +1 x119 +1 x132 +1 x145 +1 x158 +1 x171 = 1 ;
+1 x2 +1 x15 +1 x42 +1 x55 +1 x68 +1 x81 +1 x94 +1 x107 +1 x120 +1 x133 +1 x146 +1 x159 +1 x172 = 1 ;
+1 x3 +1 x16 +1 x29 +1 x56 +1 x69 +1 x82 +1 x95 +1 x108 +1 x121 +1 x134 +1 x147 +1 x160 +1 x173 = 1 ;
+1 x4 +1 x17 +1 x30 +1 x43 +1 x70 +1 x83 +1 x96 +1 x109 +1 x122 +1 x135 +1 x148 +1 x161 +1 x174 = 1 ;
+1 x5 +1 x18 +1 x31 +1 x44 +1 x57 +1 x84 +1 x97 +1 x110 +1 x123 +1 x136 +1 x149 +1 x162 +1 x175 = 1 ;
+1 x6 +1 x19 +1 x32 +1 x45 +1 x58 +1 x71 +1 x98 +1 x111 +1 x124 +1 x137 +1 x150 +1 x163 +1 x176 = 1 ;
+1 x7 +1 x20 +1 x33 +1 x46 +1 x59 +1 x72 +1 x85 +1 x112 +1 x125 +1 x138 +1 x151 +1 x164 +1 x177 = 1 ;
+1 x8 +1 x21 +1 x34 +1 x47 +1 x60 +1 x73 +1 x86 +1 x99 +1 x126 +1 x139 +1 x152 +1 x165 +1 x178 = 1 ;
+1 x9 +1 x22 +1 x35 +1 x48 +1 x61 +1 x74 +1 x87 +1 x100 +1 x113 +1 x140 +1 x153 +1 x166 +1 x179 = 1 ;
+1 x10 +1 x23 +1 x36 +1 x49 +1 x62 +1 x75 +1 x88 +1 x101 +1 x114 +1 x127 +1 x154 +1 x167 +1 x180 = 1 ;
+1 x11 +1 x24 +1 x37 +1 x50 +1 x63 +1 x76 +1 x89 +1 x102 +1 x115 +1 x128 +1 x141 +1 x168 +1 x181 = 1 ;
+1 x12 +1 x25 +1 x38 +1 x51 +1 x64 +1 x77 +1 x90 +1 x103 +1 x116 +1 x129 +1 x142 +1 x155 +1 x182 = 1 ;
+1 x13 +1 x26 +1 x39 +1 x52 +1 x65 +1 x78 +1 x91 +1 x104 +1 x117 +1 x130 +1 x143 +1 x156 +1 x169 = 1 ;

+1 x183 +2 x184 +4 x185 +8 x186 +16 x187  >= 0 ;
+1 x188 +2 x189 +4 x190 +8 x191 +16 x192  >= 0 ;
+1 x193 +2 x194 +4 x195 +8 x196 +16 x197  >= 0 ;
+1 x198 +2 x199 +4 x200 +8 x201 +16 x202  >= 0 ;
+1 x203 +2 x204 +4 x205 +8 x206 +16 x207  >= 0 ;
+1 x208 +2 x209 +4 x210 +8 x211 +16 x212  >= 0 ;
+1 x213 +2 x214 +4 x215 +8 x216 +16 x217  >= 0 ;
+1 x218 +2 x219 +4 x220 +8 x221 +16 x222  >= 0 ;
+1 x223 +2 x224 +4 x225 +8 x226 +16 x227  >= 0 ;
+1 x228 +2 x229 +4 x230 +8 x231 +16 x232  >= 0 ;
+1 x233 +2 x234 +4 x235 +8 x236 +16 x237  >= 0 ;
+1 x238 +2 x239 +4 x240 +8 x241 +16 x242  >= 0 ;
+1 x243 +2 x244 +4 x245 +8 x246 +16 x247  >= 0 ;
+1 x248 +2 x249 +4 x250 +8 x251 +16 x252  >= 0 ;


+1 x253 +2 x254 +4 x255 +8 x256 +16 x257  >= 0 ;
+1 x183 +2 x184 +4 x185 +8 x186 +16 x187 -1 x188 -2 x189 -4 x190 -8 x191 -16 x192 +14 x1 +1 x253 +2 x254 +4 x255 +8 x256 +16 x257  = 13 ;

+1 x258 +2 x259 +4 x260 +8 x261 +16 x262  >= 0 ;
+1 x183 +2 x184 +4 x185 +8 x186 +16 x187 -1 x193 -2 x194 -4 x195 -8 x196 -16 x197 +14 x2 +1 x258 +2 x259 +4 x260 +8 x261 +16 x262  = 13 ;

+1 x263 +2 x264 +4 x265 +8 x266 +16 x267  >= 0 ;
+1 x183 +2 x184 +4 x185 +8 x186 +16 x187 -1 x198 -2 x199 -4 x200 -8 x201 -16 x202 +14 x3 +1 x263 +2 x264 +4 x265 +8 x266 +16 x267  = 13 ;

+1 x268 +2 x269 +4 x270 +8 x271 +16 x272  >= 0 ;
+1 x183 +2 x184 +4 x185 +8 x186 +16 x187 -1 x203 -2 x204 -4 x205 -8 x206 -16 x207 +14 x4 +1 x268 +2 x269 +4 x270 +8 x271 +16 x272  = 13 ;

+1 x273 +2 x274 +4 x275 +8 x276 +16 x277  >= 0 ;
+1 x183 +2 x184 +4 x185 +8 x186 +16 x187 -1 x208 -2 x209 -4 x210 -8 x211 -16 x212 +14 x5 +1 x273 +2 x274 +4 x275 +8 x276 +16 x277  = 13 ;

+1 x278 +2 x279 +4 x280 +8 x281 +16 x282  >= 0 ;
+1 x183 +2 x184 +4 x185 +8 x186 +16 x187 -1 x213 -2 x214 -4 x215 -8 x216 -16 x217 +14 x6 +1 x278 +2 x279 +4 x280 +8 x281 +16 x282  = 13 ;

+1 x283 +2 x284 +4 x285 +8 x286 +16 x287  >= 0 ;
+1 x183 +2 x184 +4 x185 +8 x186 +16 x187 -1 x218 -2 x219 -4 x220 -8 x221 -16 x222 +14 x7 +1 x283 +2 x284 +4 x285 +8 x286 +16 x287  = 13 ;

+1 x288 +2 x289 +4 x290 +8 x291 +16 x292  >= 0 ;
+1 x183 +2 x184 +4 x185 +8 x186 +16 x187 -1 x223 -2 x224 -4 x225 -8 x226 -16 x227 +14 x8 +1 x288 +2 x289 +4 x290 +8 x291 +16 x292  = 13 ;

+1 x293 +2 x294 +4 x295 +8 x296 +16 x297  >= 0 ;
+1 x183 +2 x184 +4 x185 +8 x186 +16 x187 -1 x228 -2 x229 -4 x230 -8 x231 -16 x232 +14 x9 +1 x293 +2 x294 +4 x295 +8 x296 +16 x297  = 13 ;

+1 x298 +2 x299 +4 x300 +8 x301 +16 x302  >= 0 ;
+1 x183 +2 x184 +4 x185 +8 x186 +16 x187 -1 x233 -2 x234 -4 x235 -8 x236 -16 x237 +14 x10 +1 x298 +2 x299 +4 x300 +8 x301 +16 x302  = 13 ;

+1 x303 +2 x304 +4 x305 +8 x306 +16 x307  >= 0 ;
+1 x183 +2 x184 +4 x185 +8 x186 +16 x187 -1 x238 -2 x239 -4 x240 -8 x241 -16 x242 +14 x11 +1 x303 +2 x304 +4 x305 +8 x306 +16 x307  = 13 ;

+1 x308 +2 x309 +4 x310 +8 x311 +16 x312  >= 0 ;
+1 x183 +2 x184 +4 x185 +8 x186 +16 x187 -1 x243 -2 x244 -4 x245 -8 x246 -16 x247 +14 x12 +1 x308 +2 x309 +4 x310 +8 x311 +16 x312  = 13 ;

+1 x313 +2 x314 +4 x315 +8 x316 +16 x317  >= 0 ;
+1 x183 +2 x184 +4 x185 +8 x186 +16 x187 -1 x248 -2 x249 -4 x250 -8 x251 -16 x252 +14 x13 +1 x313 +2 x314 +4 x315 +8 x316 +16 x317  = 13 ;

+1 x318 +2 x319 +4 x320 +8 x321 +16 x322  >= 0 ;
+1 x188 +2 x189 +4 x190 +8 x191 +16 x192 -1 x183 -2 x184 -4 x185 -8 x186 -16 x187 +14 x14 +1 x318 +2 x319 +4 x320 +8 x321 +16 x322  = 13 ;

+1 x323 +2 x324 +4 x325 +8 x326 +16 x327  >= 0 ;
+1 x188 +2 x189 +4 x190 +8 x191 +16 x192 -1 x193 -2 x194 -4 x195 -8 x196 -16 x197 +14 x15 +1 x323 +2 x324 +4 x325 +8 x326 +16 x327  = 13 ;

+1 x328 +2 x329 +4 x330 +8 x331 +16 x332  >= 0 ;
+1 x188 +2 x189 +4 x190 +8 x191 +16 x192 -1 x198 -2 x199 -4 x200 -8 x201 -16 x202 +14 x16 +1 x328 +2 x329 +4 x330 +8 x331 +16 x332  = 13 ;

+1 x333 +2 x334 +4 x335 +8 x336 +16 x337  >= 0 ;
+1 x188 +2 x189 +4 x190 +8 x191 +16 x192 -1 x203 -2 x204 -4 x205 -8 x206 -16 x207 +14 x17 +1 x333 +2 x334 +4 x335 +8 x336 +16 x337  = 13 ;

+1 x338 +2 x339 +4 x340 +8 x341 +16 x342  >= 0 ;
+1 x188 +2 x189 +4 x190 +8 x191 +16 x192 -1 x208 -2 x209 -4 x210 -8 x211 -16 x212 +14 x18 +1 x338 +2 x339 +4 x340 +8 x341 +16 x342  = 13 ;

+1 x343 +2 x344 +4 x345 +8 x346 +16 x347  >= 0 ;
+1 x188 +2 x189 +4 x190 +8 x191 +16 x192 -1 x213 -2 x214 -4 x215 -8 x216 -16 x217 +14 x19 +1 x343 +2 x344 +4 x345 +8 x346 +16 x347  = 13 ;

+1 x348 +2 x349 +4 x350 +8 x351 +16 x352  >= 0 ;
+1 x188 +2 x189 +4 x190 +8 x191 +16 x192 -1 x218 -2 x219 -4 x220 -8 x221 -16 x222 +14 x20 +1 x348 +2 x349 +4 x350 +8 x351 +16 x352  = 13 ;

+1 x353 +2 x354 +4 x355 +8 x356 +16 x357  >= 0 ;
+1 x188 +2 x189 +4 x190 +8 x191 +16 x192 -1 x223 -2 x224 -4 x225 -8 x226 -16 x227 +14 x21 +1 x353 +2 x354 +4 x355 +8 x356 +16 x357  = 13 ;

+1 x358 +2 x359 +4 x360 +8 x361 +16 x362  >= 0 ;
+1 x188 +2 x189 +4 x190 +8 x191 +16 x192 -1 x228 -2 x229 -4 x230 -8 x231 -16 x232 +14 x22 +1 x358 +2 x359 +4 x360 +8 x361 +16 x362  = 13 ;

+1 x363 +2 x364 +4 x365 +8 x366 +16 x367  >= 0 ;
+1 x188 +2 x189 +4 x190 +8 x191 +16 x192 -1 x233 -2 x234 -4 x235 -8 x236 -16 x237 +14 x23 +1 x363 +2 x364 +4 x365 +8 x366 +16 x367  = 13 ;

+1 x368 +2 x369 +4 x370 +8 x371 +16 x372  >= 0 ;
+1 x188 +2 x189 +4 x190 +8 x191 +16 x192 -1 x238 -2 x239 -4 x240 -8 x241 -16 x242 +14 x24 +1 x368 +2 x369 +4 x370 +8 x371 +16 x372  = 13 ;

+1 x373 +2 x374 +4 x375 +8 x376 +16 x377  >= 0 ;
+1 x188 +2 x189 +4 x190 +8 x191 +16 x192 -1 x243 -2 x244 -4 x245 -8 x246 -16 x247 +14 x25 +1 x373 +2 x374 +4 x375 +8 x376 +16 x377  = 13 ;

+1 x378 +2 x379 +4 x380 +8 x381 +16 x382  >= 0 ;
+1 x188 +2 x189 +4 x190 +8 x191 +16 x192 -1 x248 -2 x249 -4 x250 -8 x251 -16 x252 +14 x26 +1 x378 +2 x379 +4 x380 +8 x381 +16 x382  = 13 ;

+1 x383 +2 x384 +4 x385 +8 x386 +16 x387  >= 0 ;
+1 x193 +2 x194 +4 x195 +8 x196 +16 x197 -1 x183 -2 x184 -4 x185 -8 x186 -16 x187 +14 x27 +1 x383 +2 x384 +4 x385 +8 x386 +16 x387  = 13 ;

+1 x388 +2 x389 +4 x390 +8 x391 +16 x392  >= 0 ;
+1 x193 +2 x194 +4 x195 +8 x196 +16 x197 -1 x188 -2 x189 -4 x190 -8 x191 -16 x192 +14 x28 +1 x388 +2 x389 +4 x390 +8 x391 +16 x392  = 13 ;

+1 x393 +2 x394 +4 x395 +8 x396 +16 x397  >= 0 ;
+1 x193 +2 x194 +4 x195 +8 x196 +16 x197 -1 x198 -2 x199 -4 x200 -8 x201 -16 x202 +14 x29 +1 x393 +2 x394 +4 x395 +8 x396 +16 x397  = 13 ;

+1 x398 +2 x399 +4 x400 +8 x401 +16 x402  >= 0 ;
+1 x193 +2 x194 +4 x195 +8 x196 +16 x197 -1 x203 -2 x204 -4 x205 -8 x206 -16 x207 +14 x30 +1 x398 +2 x399 +4 x400 +8 x401 +16 x402  = 13 ;

+1 x403 +2 x404 +4 x405 +8 x406 +16 x407  >= 0 ;
+1 x193 +2 x194 +4 x195 +8 x196 +16 x197 -1 x208 -2 x209 -4 x210 -8 x211 -16 x212 +14 x31 +1 x403 +2 x404 +4 x405 +8 x406 +16 x407  = 13 ;

+1 x408 +2 x409 +4 x410 +8 x411 +16 x412  >= 0 ;
+1 x193 +2 x194 +4 x195 +8 x196 +16 x197 -1 x213 -2 x214 -4 x215 -8 x216 -16 x217 +14 x32 +1 x408 +2 x409 +4 x410 +8 x411 +16 x412  = 13 ;

+1 x413 +2 x414 +4 x415 +8 x416 +16 x417  >= 0 ;
+1 x193 +2 x194 +4 x195 +8 x196 +16 x197 -1 x218 -2 x219 -4 x220 -8 x221 -16 x222 +14 x33 +1 x413 +2 x414 +4 x415 +8 x416 +16 x417  = 13 ;

+1 x418 +2 x419 +4 x420 +8 x421 +16 x422  >= 0 ;
+1 x193 +2 x194 +4 x195 +8 x196 +16 x197 -1 x223 -2 x224 -4 x225 -8 x226 -16 x227 +14 x34 +1 x418 +2 x419 +4 x420 +8 x421 +16 x422  = 13 ;

+1 x423 +2 x424 +4 x425 +8 x426 +16 x427  >= 0 ;
+1 x193 +2 x194 +4 x195 +8 x196 +16 x197 -1 x228 -2 x229 -4 x230 -8 x231 -16 x232 +14 x35 +1 x423 +2 x424 +4 x425 +8 x426 +16 x427  = 13 ;

+1 x428 +2 x429 +4 x430 +8 x431 +16 x432  >= 0 ;
+1 x193 +2 x194 +4 x195 +8 x196 +16 x197 -1 x233 -2 x234 -4 x235 -8 x236 -16 x237 +14 x36 +1 x428 +2 x429 +4 x430 +8 x431 +16 x432  = 13 ;

+1 x433 +2 x434 +4 x435 +8 x436 +16 x437  >= 0 ;
+1 x193 +2 x194 +4 x195 +8 x196 +16 x197 -1 x238 -2 x239 -4 x240 -8 x241 -16 x242 +14 x37 +1 x433 +2 x434 +4 x435 +8 x436 +16 x437  = 13 ;

+1 x438 +2 x439 +4 x440 +8 x441 +16 x442  >= 0 ;
+1 x193 +2 x194 +4 x195 +8 x196 +16 x197 -1 x243 -2 x244 -4 x245 -8 x246 -16 x247 +14 x38 +1 x438 +2 x439 +4 x440 +8 x441 +16 x442  = 13 ;

+1 x443 +2 x444 +4 x445 +8 x446 +16 x447  >= 0 ;
+1 x193 +2 x194 +4 x195 +8 x196 +16 x197 -1 x248 -2 x249 -4 x250 -8 x251 -16 x252 +14 x39 +1 x443 +2 x444 +4 x445 +8 x446 +16 x447  = 13 ;

+1 x448 +2 x449 +4 x450 +8 x451 +16 x452  >= 0 ;
+1 x198 +2 x199 +4 x200 +8 x201 +16 x202 -1 x183 -2 x184 -4 x185 -8 x186 -16 x187 +14 x40 +1 x448 +2 x449 +4 x450 +8 x451 +16 x452  = 13 ;

+1 x453 +2 x454 +4 x455 +8 x456 +16 x457  >= 0 ;
+1 x198 +2 x199 +4 x200 +8 x201 +16 x202 -1 x188 -2 x189 -4 x190 -8 x191 -16 x192 +14 x41 +1 x453 +2 x454 +4 x455 +8 x456 +16 x457  = 13 ;

+1 x458 +2 x459 +4 x460 +8 x461 +16 x462  >= 0 ;
+1 x198 +2 x199 +4 x200 +8 x201 +16 x202 -1 x193 -2 x194 -4 x195 -8 x196 -16 x197 +14 x42 +1 x458 +2 x459 +4 x460 +8 x461 +16 x462  = 13 ;

+1 x463 +2 x464 +4 x465 +8 x466 +16 x467  >= 0 ;
+1 x198 +2 x199 +4 x200 +8 x201 +16 x202 -1 x203 -2 x204 -4 x205 -8 x206 -16 x207 +14 x43 +1 x463 +2 x464 +4 x465 +8 x466 +16 x467  = 13 ;

+1 x468 +2 x469 +4 x470 +8 x471 +16 x472  >= 0 ;
+1 x198 +2 x199 +4 x200 +8 x201 +16 x202 -1 x208 -2 x209 -4 x210 -8 x211 -16 x212 +14 x44 +1 x468 +2 x469 +4 x470 +8 x471 +16 x472  = 13 ;

+1 x473 +2 x474 +4 x475 +8 x476 +16 x477  >= 0 ;
+1 x198 +2 x199 +4 x200 +8 x201 +16 x202 -1 x213 -2 x214 -4 x215 -8 x216 -16 x217 +14 x45 +1 x473 +2 x474 +4 x475 +8 x476 +16 x477  = 13 ;

+1 x478 +2 x479 +4 x480 +8 x481 +16 x482  >= 0 ;
+1 x198 +2 x199 +4 x200 +8 x201 +16 x202 -1 x218 -2 x219 -4 x220 -8 x221 -16 x222 +14 x46 +1 x478 +2 x479 +4 x480 +8 x481 +16 x482  = 13 ;

+1 x483 +2 x484 +4 x485 +8 x486 +16 x487  >= 0 ;
+1 x198 +2 x199 +4 x200 +8 x201 +16 x202 -1 x223 -2 x224 -4 x225 -8 x226 -16 x227 +14 x47 +1 x483 +2 x484 +4 x485 +8 x486 +16 x487  = 13 ;

+1 x488 +2 x489 +4 x490 +8 x491 +16 x492  >= 0 ;
+1 x198 +2 x199 +4 x200 +8 x201 +16 x202 -1 x228 -2 x229 -4 x230 -8 x231 -16 x232 +14 x48 +1 x488 +2 x489 +4 x490 +8 x491 +16 x492  = 13 ;

+1 x493 +2 x494 +4 x495 +8 x496 +16 x497  >= 0 ;
+1 x198 +2 x199 +4 x200 +8 x201 +16 x202 -1 x233 -2 x234 -4 x235 -8 x236 -16 x237 +14 x49 +1 x493 +2 x494 +4 x495 +8 x496 +16 x497  = 13 ;

+1 x498 +2 x499 +4 x500 +8 x501 +16 x502  >= 0 ;
+1 x198 +2 x199 +4 x200 +8 x201 +16 x202 -1 x238 -2 x239 -4 x240 -8 x241 -16 x242 +14 x50 +1 x498 +2 x499 +4 x500 +8 x501 +16 x502  = 13 ;

+1 x503 +2 x504 +4 x505 +8 x506 +16 x507  >= 0 ;
+1 x198 +2 x199 +4 x200 +8 x201 +16 x202 -1 x243 -2 x244 -4 x245 -8 x246 -16 x247 +14 x51 +1 x503 +2 x504 +4 x505 +8 x506 +16 x507  = 13 ;

+1 x508 +2 x509 +4 x510 +8 x511 +16 x512  >= 0 ;
+1 x198 +2 x199 +4 x200 +8 x201 +16 x202 -1 x248 -2 x249 -4 x250 -8 x251 -16 x252 +14 x52 +1 x508 +2 x509 +4 x510 +8 x511 +16 x512  = 13 ;

+1 x513 +2 x514 +4 x515 +8 x516 +16 x517  >= 0 ;
+1 x203 +2 x204 +4 x205 +8 x206 +16 x207 -1 x183 -2 x184 -4 x185 -8 x186 -16 x187 +14 x53 +1 x513 +2 x514 +4 x515 +8 x516 +16 x517  = 13 ;

+1 x518 +2 x519 +4 x520 +8 x521 +16 x522  >= 0 ;
+1 x203 +2 x204 +4 x205 +8 x206 +16 x207 -1 x188 -2 x189 -4 x190 -8 x191 -16 x192 +14 x54 +1 x518 +2 x519 +4 x520 +8 x521 +16 x522  = 13 ;

+1 x523 +2 x524 +4 x525 +8 x526 +16 x527  >= 0 ;
+1 x203 +2 x204 +4 x205 +8 x206 +16 x207 -1 x193 -2 x194 -4 x195 -8 x196 -16 x197 +14 x55 +1 x523 +2 x524 +4 x525 +8 x526 +16 x527  = 13 ;

+1 x528 +2 x529 +4 x530 +8 x531 +16 x532  >= 0 ;
+1 x203 +2 x204 +4 x205 +8 x206 +16 x207 -1 x198 -2 x199 -4 x200 -8 x201 -16 x202 +14 x56 +1 x528 +2 x529 +4 x530 +8 x531 +16 x532  = 13 ;

+1 x533 +2 x534 +4 x535 +8 x536 +16 x537  >= 0 ;
+1 x203 +2 x204 +4 x205 +8 x206 +16 x207 -1 x208 -2 x209 -4 x210 -8 x211 -16 x212 +14 x57 +1 x533 +2 x534 +4 x535 +8 x536 +16 x537  = 13 ;

+1 x538 +2 x539 +4 x540 +8 x541 +16 x542  >= 0 ;
+1 x203 +2 x204 +4 x205 +8 x206 +16 x207 -1 x213 -2 x214 -4 x215 -8 x216 -16 x217 +14 x58 +1 x538 +2 x539 +4 x540 +8 x541 +16 x542  = 13 ;

+1 x543 +2 x544 +4 x545 +8 x546 +16 x547  >= 0 ;
+1 x203 +2 x204 +4 x205 +8 x206 +16 x207 -1 x218 -2 x219 -4 x220 -8 x221 -16 x222 +14 x59 +1 x543 +2 x544 +4 x545 +8 x546 +16 x547  = 13 ;

+1 x548 +2 x549 +4 x550 +8 x551 +16 x552  >= 0 ;
+1 x203 +2 x204 +4 x205 +8 x206 +16 x207 -1 x223 -2 x224 -4 x225 -8 x226 -16 x227 +14 x60 +1 x548 +2 x549 +4 x550 +8 x551 +16 x552  = 13 ;

+1 x553 +2 x554 +4 x555 +8 x556 +16 x557  >= 0 ;
+1 x203 +2 x204 +4 x205 +8 x206 +16 x207 -1 x228 -2 x229 -4 x230 -8 x231 -16 x232 +14 x61 +1 x553 +2 x554 +4 x555 +8 x556 +16 x557  = 13 ;

+1 x558 +2 x559 +4 x560 +8 x561 +16 x562  >= 0 ;
+1 x203 +2 x204 +4 x205 +8 x206 +16 x207 -1 x233 -2 x234 -4 x235 -8 x236 -16 x237 +14 x62 +1 x558 +2 x559 +4 x560 +8 x561 +16 x562  = 13 ;

+1 x563 +2 x564 +4 x565 +8 x566 +16 x567  >= 0 ;
+1 x203 +2 x204 +4 x205 +8 x206 +16 x207 -1 x238 -2 x239 -4 x240 -8 x241 -16 x242 +14 x63 +1 x563 +2 x564 +4 x565 +8 x566 +16 x567  = 13 ;

+1 x568 +2 x569 +4 x570 +8 x571 +16 x572  >= 0 ;
+1 x203 +2 x204 +4 x205 +8 x206 +16 x207 -1 x243 -2 x244 -4 x245 -8 x246 -16 x247 +14 x64 +1 x568 +2 x569 +4 x570 +8 x571 +16 x572  = 13 ;

+1 x573 +2 x574 +4 x575 +8 x576 +16 x577  >= 0 ;
+1 x203 +2 x204 +4 x205 +8 x206 +16 x207 -1 x248 -2 x249 -4 x250 -8 x251 -16 x252 +14 x65 +1 x573 +2 x574 +4 x575 +8 x576 +16 x577  = 13 ;

+1 x578 +2 x579 +4 x580 +8 x581 +16 x582  >= 0 ;
+1 x208 +2 x209 +4 x210 +8 x211 +16 x212 -1 x183 -2 x184 -4 x185 -8 x186 -16 x187 +14 x66 +1 x578 +2 x579 +4 x580 +8 x581 +16 x582  = 13 ;

+1 x583 +2 x584 +4 x585 +8 x586 +16 x587  >= 0 ;
+1 x208 +2 x209 +4 x210 +8 x211 +16 x212 -1 x188 -2 x189 -4 x190 -8 x191 -16 x192 +14 x67 +1 x583 +2 x584 +4 x585 +8 x586 +16 x587  = 13 ;

+1 x588 +2 x589 +4 x590 +8 x591 +16 x592  >= 0 ;
+1 x208 +2 x209 +4 x210 +8 x211 +16 x212 -1 x193 -2 x194 -4 x195 -8 x196 -16 x197 +14 x68 +1 x588 +2 x589 +4 x590 +8 x591 +16 x592  = 13 ;

+1 x593 +2 x594 +4 x595 +8 x596 +16 x597  >= 0 ;
+1 x208 +2 x209 +4 x210 +8 x211 +16 x212 -1 x198 -2 x199 -4 x200 -8 x201 -16 x202 +14 x69 +1 x593 +2 x594 +4 x595 +8 x596 +16 x597  = 13 ;

+1 x598 +2 x599 +4 x600 +8 x601 +16 x602  >= 0 ;
+1 x208 +2 x209 +4 x210 +8 x211 +16 x212 -1 x203 -2 x204 -4 x205 -8 x206 -16 x207 +14 x70 +1 x598 +2 x599 +4 x600 +8 x601 +16 x602  = 13 ;

+1 x603 +2 x604 +4 x605 +8 x606 +16 x607  >= 0 ;
+1 x208 +2 x209 +4 x210 +8 x211 +16 x212 -1 x213 -2 x214 -4 x215 -8 x216 -16 x217 +14 x71 +1 x603 +2 x604 +4 x605 +8 x606 +16 x607  = 13 ;

+1 x608 +2 x609 +4 x610 +8 x611 +16 x612  >= 0 ;
+1 x208 +2 x209 +4 x210 +8 x211 +16 x212 -1 x218 -2 x219 -4 x220 -8 x221 -16 x222 +14 x72 +1 x608 +2 x609 +4 x610 +8 x611 +16 x612  = 13 ;

+1 x613 +2 x614 +4 x615 +8 x616 +16 x617  >= 0 ;
+1 x208 +2 x209 +4 x210 +8 x211 +16 x212 -1 x223 -2 x224 -4 x225 -8 x226 -16 x227 +14 x73 +1 x613 +2 x614 +4 x615 +8 x616 +16 x617  = 13 ;

+1 x618 +2 x619 +4 x620 +8 x621 +16 x622  >= 0 ;
+1 x208 +2 x209 +4 x210 +8 x211 +16 x212 -1 x228 -2 x229 -4 x230 -8 x231 -16 x232 +14 x74 +1 x618 +2 x619 +4 x620 +8 x621 +16 x622  = 13 ;

+1 x623 +2 x624 +4 x625 +8 x626 +16 x627  >= 0 ;
+1 x208 +2 x209 +4 x210 +8 x211 +16 x212 -1 x233 -2 x234 -4 x235 -8 x236 -16 x237 +14 x75 +1 x623 +2 x624 +4 x625 +8 x626 +16 x627  = 13 ;

+1 x628 +2 x629 +4 x630 +8 x631 +16 x632  >= 0 ;
+1 x208 +2 x209 +4 x210 +8 x211 +16 x212 -1 x238 -2 x239 -4 x240 -8 x241 -16 x242 +14 x76 +1 x628 +2 x629 +4 x630 +8 x631 +16 x632  = 13 ;

+1 x633 +2 x634 +4 x635 +8 x636 +16 x637  >= 0 ;
+1 x208 +2 x209 +4 x210 +8 x211 +16 x212 -1 x243 -2 x244 -4 x245 -8 x246 -16 x247 +14 x77 +1 x633 +2 x634 +4 x635 +8 x636 +16 x637  = 13 ;

+1 x638 +2 x639 +4 x640 +8 x641 +16 x642  >= 0 ;
+1 x208 +2 x209 +4 x210 +8 x211 +16 x212 -1 x248 -2 x249 -4 x250 -8 x251 -16 x252 +14 x78 +1 x638 +2 x639 +4 x640 +8 x641 +16 x642  = 13 ;

+1 x643 +2 x644 +4 x645 +8 x646 +16 x647  >= 0 ;
+1 x213 +2 x214 +4 x215 +8 x216 +16 x217 -1 x183 -2 x184 -4 x185 -8 x186 -16 x187 +14 x79 +1 x643 +2 x644 +4 x645 +8 x646 +16 x647  = 13 ;

+1 x648 +2 x649 +4 x650 +8 x651 +16 x652  >= 0 ;
+1 x213 +2 x214 +4 x215 +8 x216 +16 x217 -1 x188 -2 x189 -4 x190 -8 x191 -16 x192 +14 x80 +1 x648 +2 x649 +4 x650 +8 x651 +16 x652  = 13 ;

+1 x653 +2 x654 +4 x655 +8 x656 +16 x657  >= 0 ;
+1 x213 +2 x214 +4 x215 +8 x216 +16 x217 -1 x193 -2 x194 -4 x195 -8 x196 -16 x197 +14 x81 +1 x653 +2 x654 +4 x655 +8 x656 +16 x657  = 13 ;

+1 x658 +2 x659 +4 x660 +8 x661 +16 x662  >= 0 ;
+1 x213 +2 x214 +4 x215 +8 x216 +16 x217 -1 x198 -2 x199 -4 x200 -8 x201 -16 x202 +14 x82 +1 x658 +2 x659 +4 x660 +8 x661 +16 x662  = 13 ;

+1 x663 +2 x664 +4 x665 +8 x666 +16 x667  >= 0 ;
+1 x213 +2 x214 +4 x215 +8 x216 +16 x217 -1 x203 -2 x204 -4 x205 -8 x206 -16 x207 +14 x83 +1 x663 +2 x664 +4 x665 +8 x666 +16 x667  = 13 ;

+1 x668 +2 x669 +4 x670 +8 x671 +16 x672  >= 0 ;
+1 x213 +2 x214 +4 x215 +8 x216 +16 x217 -1 x208 -2 x209 -4 x210 -8 x211 -16 x212 +14 x84 +1 x668 +2 x669 +4 x670 +8 x671 +16 x672  = 13 ;

+1 x673 +2 x674 +4 x675 +8 x676 +16 x677  >= 0 ;
+1 x213 +2 x214 +4 x215 +8 x216 +16 x217 -1 x218 -2 x219 -4 x220 -8 x221 -16 x222 +14 x85 +1 x673 +2 x674 +4 x675 +8 x676 +16 x677  = 13 ;

+1 x678 +2 x679 +4 x680 +8 x681 +16 x682  >= 0 ;
+1 x213 +2 x214 +4 x215 +8 x216 +16 x217 -1 x223 -2 x224 -4 x225 -8 x226 -16 x227 +14 x86 +1 x678 +2 x679 +4 x680 +8 x681 +16 x682  = 13 ;

+1 x683 +2 x684 +4 x685 +8 x686 +16 x687  >= 0 ;
+1 x213 +2 x214 +4 x215 +8 x216 +16 x217 -1 x228 -2 x229 -4 x230 -8 x231 -16 x232 +14 x87 +1 x683 +2 x684 +4 x685 +8 x686 +16 x687  = 13 ;

+1 x688 +2 x689 +4 x690 +8 x691 +16 x692  >= 0 ;
+1 x213 +2 x214 +4 x215 +8 x216 +16 x217 -1 x233 -2 x234 -4 x235 -8 x236 -16 x237 +14 x88 +1 x688 +2 x689 +4 x690 +8 x691 +16 x692  = 13 ;

+1 x693 +2 x694 +4 x695 +8 x696 +16 x697  >= 0 ;
+1 x213 +2 x214 +4 x215 +8 x216 +16 x217 -1 x238 -2 x239 -4 x240 -8 x241 -16 x242 +14 x89 +1 x693 +2 x694 +4 x695 +8 x696 +16 x697  = 13 ;

+1 x698 +2 x699 +4 x700 +8 x701 +16 x702  >= 0 ;
+1 x213 +2 x214 +4 x215 +8 x216 +16 x217 -1 x243 -2 x244 -4 x245 -8 x246 -16 x247 +14 x90 +1 x698 +2 x699 +4 x700 +8 x701 +16 x702  = 13 ;

+1 x703 +2 x704 +4 x705 +8 x706 +16 x707  >= 0 ;
+1 x213 +2 x214 +4 x215 +8 x216 +16 x217 -1 x248 -2 x249 -4 x250 -8 x251 -16 x252 +14 x91 +1 x703 +2 x704 +4 x705 +8 x706 +16 x707  = 13 ;

+1 x708 +2 x709 +4 x710 +8 x711 +16 x712  >= 0 ;
+1 x218 +2 x219 +4 x220 +8 x221 +16 x222 -1 x183 -2 x184 -4 x185 -8 x186 -16 x187 +14 x92 +1 x708 +2 x709 +4 x710 +8 x711 +16 x712  = 13 ;

+1 x713 +2 x714 +4 x715 +8 x716 +16 x717  >= 0 ;
+1 x218 +2 x219 +4 x220 +8 x221 +16 x222 -1 x188 -2 x189 -4 x190 -8 x191 -16 x192 +14 x93 +1 x713 +2 x714 +4 x715 +8 x716 +16 x717  = 13 ;

+1 x718 +2 x719 +4 x720 +8 x721 +16 x722  >= 0 ;
+1 x218 +2 x219 +4 x220 +8 x221 +16 x222 -1 x193 -2 x194 -4 x195 -8 x196 -16 x197 +14 x94 +1 x718 +2 x719 +4 x720 +8 x721 +16 x722  = 13 ;

+1 x723 +2 x724 +4 x725 +8 x726 +16 x727  >= 0 ;
+1 x218 +2 x219 +4 x220 +8 x221 +16 x222 -1 x198 -2 x199 -4 x200 -8 x201 -16 x202 +14 x95 +1 x723 +2 x724 +4 x725 +8 x726 +16 x727  = 13 ;

+1 x728 +2 x729 +4 x730 +8 x731 +16 x732  >= 0 ;
+1 x218 +2 x219 +4 x220 +8 x221 +16 x222 -1 x203 -2 x204 -4 x205 -8 x206 -16 x207 +14 x96 +1 x728 +2 x729 +4 x730 +8 x731 +16 x732  = 13 ;

+1 x733 +2 x734 +4 x735 +8 x736 +16 x737  >= 0 ;
+1 x218 +2 x219 +4 x220 +8 x221 +16 x222 -1 x208 -2 x209 -4 x210 -8 x211 -16 x212 +14 x97 +1 x733 +2 x734 +4 x735 +8 x736 +16 x737  = 13 ;

+1 x738 +2 x739 +4 x740 +8 x741 +16 x742  >= 0 ;
+1 x218 +2 x219 +4 x220 +8 x221 +16 x222 -1 x213 -2 x214 -4 x215 -8 x216 -16 x217 +14 x98 +1 x738 +2 x739 +4 x740 +8 x741 +16 x742  = 13 ;

+1 x743 +2 x744 +4 x745 +8 x746 +16 x747  >= 0 ;
+1 x218 +2 x219 +4 x220 +8 x221 +16 x222 -1 x223 -2 x224 -4 x225 -8 x226 -16 x227 +14 x99 +1 x743 +2 x744 +4 x745 +8 x746 +16 x747  = 13 ;

+1 x748 +2 x749 +4 x750 +8 x751 +16 x752  >= 0 ;
+1 x218 +2 x219 +4 x220 +8 x221 +16 x222 -1 x228 -2 x229 -4 x230 -8 x231 -16 x232 +14 x100 +1 x748 +2 x749 +4 x750 +8 x751 +16 x752  = 13 ;

+1 x753 +2 x754 +4 x755 +8 x756 +16 x757  >= 0 ;
+1 x218 +2 x219 +4 x220 +8 x221 +16 x222 -1 x233 -2 x234 -4 x235 -8 x236 -16 x237 +14 x101 +1 x753 +2 x754 +4 x755 +8 x756 +16 x757  = 13 ;

+1 x758 +2 x759 +4 x760 +8 x761 +16 x762  >= 0 ;
+1 x218 +2 x219 +4 x220 +8 x221 +16 x222 -1 x238 -2 x239 -4 x240 -8 x241 -16 x242 +14 x102 +1 x758 +2 x759 +4 x760 +8 x761 +16 x762  = 13 ;

+1 x763 +2 x764 +4 x765 +8 x766 +16 x767  >= 0 ;
+1 x218 +2 x219 +4 x220 +8 x221 +16 x222 -1 x243 -2 x244 -4 x245 -8 x246 -16 x247 +14 x103 +1 x763 +2 x764 +4 x765 +8 x766 +16 x767  = 13 ;

+1 x768 +2 x769 +4 x770 +8 x771 +16 x772  >= 0 ;
+1 x218 +2 x219 +4 x220 +8 x221 +16 x222 -1 x248 -2 x249 -4 x250 -8 x251 -16 x252 +14 x104 +1 x768 +2 x769 +4 x770 +8 x771 +16 x772  = 13 ;

+1 x773 +2 x774 +4 x775 +8 x776 +16 x777  >= 0 ;
+1 x223 +2 x224 +4 x225 +8 x226 +16 x227 -1 x183 -2 x184 -4 x185 -8 x186 -16 x187 +14 x105 +1 x773 +2 x774 +4 x775 +8 x776 +16 x777  = 13 ;

+1 x778 +2 x779 +4 x780 +8 x781 +16 x782  >= 0 ;
+1 x223 +2 x224 +4 x225 +8 x226 +16 x227 -1 x188 -2 x189 -4 x190 -8 x191 -16 x192 +14 x106 +1 x778 +2 x779 +4 x780 +8 x781 +16 x782  = 13 ;

+1 x783 +2 x784 +4 x785 +8 x786 +16 x787  >= 0 ;
+1 x223 +2 x224 +4 x225 +8 x226 +16 x227 -1 x193 -2 x194 -4 x195 -8 x196 -16 x197 +14 x107 +1 x783 +2 x784 +4 x785 +8 x786 +16 x787  = 13 ;

+1 x788 +2 x789 +4 x790 +8 x791 +16 x792  >= 0 ;
+1 x223 +2 x224 +4 x225 +8 x226 +16 x227 -1 x198 -2 x199 -4 x200 -8 x201 -16 x202 +14 x108 +1 x788 +2 x789 +4 x790 +8 x791 +16 x792  = 13 ;

+1 x793 +2 x794 +4 x795 +8 x796 +16 x797  >= 0 ;
+1 x223 +2 x224 +4 x225 +8 x226 +16 x227 -1 x203 -2 x204 -4 x205 -8 x206 -16 x207 +14 x109 +1 x793 +2 x794 +4 x795 +8 x796 +16 x797  = 13 ;

+1 x798 +2 x799 +4 x800 +8 x801 +16 x802  >= 0 ;
+1 x223 +2 x224 +4 x225 +8 x226 +16 x227 -1 x208 -2 x209 -4 x210 -8 x211 -16 x212 +14 x110 +1 x798 +2 x799 +4 x800 +8 x801 +16 x802  = 13 ;

+1 x803 +2 x804 +4 x805 +8 x806 +16 x807  >= 0 ;
+1 x223 +2 x224 +4 x225 +8 x226 +16 x227 -1 x213 -2 x214 -4 x215 -8 x216 -16 x217 +14 x111 +1 x803 +2 x804 +4 x805 +8 x806 +16 x807  = 13 ;

+1 x808 +2 x809 +4 x810 +8 x811 +16 x812  >= 0 ;
+1 x223 +2 x224 +4 x225 +8 x226 +16 x227 -1 x218 -2 x219 -4 x220 -8 x221 -16 x222 +14 x112 +1 x808 +2 x809 +4 x810 +8 x811 +16 x812  = 13 ;

+1 x813 +2 x814 +4 x815 +8 x816 +16 x817  >= 0 ;
+1 x223 +2 x224 +4 x225 +8 x226 +16 x227 -1 x228 -2 x229 -4 x230 -8 x231 -16 x232 +14 x113 +1 x813 +2 x814 +4 x815 +8 x816 +16 x817  = 13 ;

+1 x818 +2 x819 +4 x820 +8 x821 +16 x822  >= 0 ;
+1 x223 +2 x224 +4 x225 +8 x226 +16 x227 -1 x233 -2 x234 -4 x235 -8 x236 -16 x237 +14 x114 +1 x818 +2 x819 +4 x820 +8 x821 +16 x822  = 13 ;

+1 x823 +2 x824 +4 x825 +8 x826 +16 x827  >= 0 ;
+1 x223 +2 x224 +4 x225 +8 x226 +16 x227 -1 x238 -2 x239 -4 x240 -8 x241 -16 x242 +14 x115 +1 x823 +2 x824 +4 x825 +8 x826 +16 x827  = 13 ;

+1 x828 +2 x829 +4 x830 +8 x831 +16 x832  >= 0 ;
+1 x223 +2 x224 +4 x225 +8 x226 +16 x227 -1 x243 -2 x244 -4 x245 -8 x246 -16 x247 +14 x116 +1 x828 +2 x829 +4 x830 +8 x831 +16 x832  = 13 ;

+1 x833 +2 x834 +4 x835 +8 x836 +16 x837  >= 0 ;
+1 x223 +2 x224 +4 x225 +8 x226 +16 x227 -1 x248 -2 x249 -4 x250 -8 x251 -16 x252 +14 x117 +1 x833 +2 x834 +4 x835 +8 x836 +16 x837  = 13 ;

+1 x838 +2 x839 +4 x840 +8 x841 +16 x842  >= 0 ;
+1 x228 +2 x229 +4 x230 +8 x231 +16 x232 -1 x183 -2 x184 -4 x185 -8 x186 -16 x187 +14 x118 +1 x838 +2 x839 +4 x840 +8 x841 +16 x842  = 13 ;

+1 x843 +2 x844 +4 x845 +8 x846 +16 x847  >= 0 ;
+1 x228 +2 x229 +4 x230 +8 x231 +16 x232 -1 x188 -2 x189 -4 x190 -8 x191 -16 x192 +14 x119 +1 x843 +2 x844 +4 x845 +8 x846 +16 x847  = 13 ;

+1 x848 +2 x849 +4 x850 +8 x851 +16 x852  >= 0 ;
+1 x228 +2 x229 +4 x230 +8 x231 +16 x232 -1 x193 -2 x194 -4 x195 -8 x196 -16 x197 +14 x120 +1 x848 +2 x849 +4 x850 +8 x851 +16 x852  = 13 ;

+1 x853 +2 x854 +4 x855 +8 x856 +16 x857  >= 0 ;
+1 x228 +2 x229 +4 x230 +8 x231 +16 x232 -1 x198 -2 x199 -4 x200 -8 x201 -16 x202 +14 x121 +1 x853 +2 x854 +4 x855 +8 x856 +16 x857  = 13 ;

+1 x858 +2 x859 +4 x860 +8 x861 +16 x862  >= 0 ;
+1 x228 +2 x229 +4 x230 +8 x231 +16 x232 -1 x203 -2 x204 -4 x205 -8 x206 -16 x207 +14 x122 +1 x858 +2 x859 +4 x860 +8 x861 +16 x862  = 13 ;

+1 x863 +2 x864 +4 x865 +8 x866 +16 x867  >= 0 ;
+1 x228 +2 x229 +4 x230 +8 x231 +16 x232 -1 x208 -2 x209 -4 x210 -8 x211 -16 x212 +14 x123 +1 x863 +2 x864 +4 x865 +8 x866 +16 x867  = 13 ;

+1 x868 +2 x869 +4 x870 +8 x871 +16 x872  >= 0 ;
+1 x228 +2 x229 +4 x230 +8 x231 +16 x232 -1 x213 -2 x214 -4 x215 -8 x216 -16 x217 +14 x124 +1 x868 +2 x869 +4 x870 +8 x871 +16 x872  = 13 ;

+1 x873 +2 x874 +4 x875 +8 x876 +16 x877  >= 0 ;
+1 x228 +2 x229 +4 x230 +8 x231 +16 x232 -1 x218 -2 x219 -4 x220 -8 x221 -16 x222 +14 x125 +1 x873 +2 x874 +4 x875 +8 x876 +16 x877  = 13 ;

+1 x878 +2 x879 +4 x880 +8 x881 +16 x882  >= 0 ;
+1 x228 +2 x229 +4 x230 +8 x231 +16 x232 -1 x223 -2 x224 -4 x225 -8 x226 -16 x227 +14 x126 +1 x878 +2 x879 +4 x880 +8 x881 +16 x882  = 13 ;

+1 x883 +2 x884 +4 x885 +8 x886 +16 x887  >= 0 ;
+1 x228 +2 x229 +4 x230 +8 x231 +16 x232 -1 x233 -2 x234 -4 x235 -8 x236 -16 x237 +14 x127 +1 x883 +2 x884 +4 x885 +8 x886 +16 x887  = 13 ;

+1 x888 +2 x889 +4 x890 +8 x891 +16 x892  >= 0 ;
+1 x228 +2 x229 +4 x230 +8 x231 +16 x232 -1 x238 -2 x239 -4 x240 -8 x241 -16 x242 +14 x128 +1 x888 +2 x889 +4 x890 +8 x891 +16 x892  = 13 ;

+1 x893 +2 x894 +4 x895 +8 x896 +16 x897  >= 0 ;
+1 x228 +2 x229 +4 x230 +8 x231 +16 x232 -1 x243 -2 x244 -4 x245 -8 x246 -16 x247 +14 x129 +1 x893 +2 x894 +4 x895 +8 x896 +16 x897  = 13 ;

+1 x898 +2 x899 +4 x900 +8 x901 +16 x902  >= 0 ;
+1 x228 +2 x229 +4 x230 +8 x231 +16 x232 -1 x248 -2 x249 -4 x250 -8 x251 -16 x252 +14 x130 +1 x898 +2 x899 +4 x900 +8 x901 +16 x902  = 13 ;

+1 x903 +2 x904 +4 x905 +8 x906 +16 x907  >= 0 ;
+1 x233 +2 x234 +4 x235 +8 x236 +16 x237 -1 x183 -2 x184 -4 x185 -8 x186 -16 x187 +14 x131 +1 x903 +2 x904 +4 x905 +8 x906 +16 x907  = 13 ;

+1 x908 +2 x909 +4 x910 +8 x911 +16 x912  >= 0 ;
+1 x233 +2 x234 +4 x235 +8 x236 +16 x237 -1 x188 -2 x189 -4 x190 -8 x191 -16 x192 +14 x132 +1 x908 +2 x909 +4 x910 +8 x911 +16 x912  = 13 ;

+1 x913 +2 x914 +4 x915 +8 x916 +16 x917  >= 0 ;
+1 x233 +2 x234 +4 x235 +8 x236 +16 x237 -1 x193 -2 x194 -4 x195 -8 x196 -16 x197 +14 x133 +1 x913 +2 x914 +4 x915 +8 x916 +16 x917  = 13 ;

+1 x918 +2 x919 +4 x920 +8 x921 +16 x922  >= 0 ;
+1 x233 +2 x234 +4 x235 +8 x236 +16 x237 -1 x198 -2 x199 -4 x200 -8 x201 -16 x202 +14 x134 +1 x918 +2 x919 +4 x920 +8 x921 +16 x922  = 13 ;

+1 x923 +2 x924 +4 x925 +8 x926 +16 x927  >= 0 ;
+1 x233 +2 x234 +4 x235 +8 x236 +16 x237 -1 x203 -2 x204 -4 x205 -8 x206 -16 x207 +14 x135 +1 x923 +2 x924 +4 x925 +8 x926 +16 x927  = 13 ;

+1 x928 +2 x929 +4 x930 +8 x931 +16 x932  >= 0 ;
+1 x233 +2 x234 +4 x235 +8 x236 +16 x237 -1 x208 -2 x209 -4 x210 -8 x211 -16 x212 +14 x136 +1 x928 +2 x929 +4 x930 +8 x931 +16 x932  = 13 ;

+1 x933 +2 x934 +4 x935 +8 x936 +16 x937  >= 0 ;
+1 x233 +2 x234 +4 x235 +8 x236 +16 x237 -1 x213 -2 x214 -4 x215 -8 x216 -16 x217 +14 x137 +1 x933 +2 x934 +4 x935 +8 x936 +16 x937  = 13 ;

+1 x938 +2 x939 +4 x940 +8 x941 +16 x942  >= 0 ;
+1 x233 +2 x234 +4 x235 +8 x236 +16 x237 -1 x218 -2 x219 -4 x220 -8 x221 -16 x222 +14 x138 +1 x938 +2 x939 +4 x940 +8 x941 +16 x942  = 13 ;

+1 x943 +2 x944 +4 x945 +8 x946 +16 x947  >= 0 ;
+1 x233 +2 x234 +4 x235 +8 x236 +16 x237 -1 x223 -2 x224 -4 x225 -8 x226 -16 x227 +14 x139 +1 x943 +2 x944 +4 x945 +8 x946 +16 x947  = 13 ;

+1 x948 +2 x949 +4 x950 +8 x951 +16 x952  >= 0 ;
+1 x233 +2 x234 +4 x235 +8 x236 +16 x237 -1 x228 -2 x229 -4 x230 -8 x231 -16 x232 +14 x140 +1 x948 +2 x949 +4 x950 +8 x951 +16 x952  = 13 ;

+1 x953 +2 x954 +4 x955 +8 x956 +16 x957  >= 0 ;
+1 x233 +2 x234 +4 x235 +8 x236 +16 x237 -1 x238 -2 x239 -4 x240 -8 x241 -16 x242 +14 x141 +1 x953 +2 x954 +4 x955 +8 x956 +16 x957  = 13 ;

+1 x958 +2 x959 +4 x960 +8 x961 +16 x962  >= 0 ;
+1 x233 +2 x234 +4 x235 +8 x236 +16 x237 -1 x243 -2 x244 -4 x245 -8 x246 -16 x247 +14 x142 +1 x958 +2 x959 +4 x960 +8 x961 +16 x962  = 13 ;

+1 x963 +2 x964 +4 x965 +8 x966 +16 x967  >= 0 ;
+1 x233 +2 x234 +4 x235 +8 x236 +16 x237 -1 x248 -2 x249 -4 x250 -8 x251 -16 x252 +14 x143 +1 x963 +2 x964 +4 x965 +8 x966 +16 x967  = 13 ;

+1 x968 +2 x969 +4 x970 +8 x971 +16 x972  >= 0 ;
+1 x238 +2 x239 +4 x240 +8 x241 +16 x242 -1 x183 -2 x184 -4 x185 -8 x186 -16 x187 +14 x144 +1 x968 +2 x969 +4 x970 +8 x971 +16 x972  = 13 ;

+1 x973 +2 x974 +4 x975 +8 x976 +16 x977  >= 0 ;
+1 x238 +2 x239 +4 x240 +8 x241 +16 x242 -1 x188 -2 x189 -4 x190 -8 x191 -16 x192 +14 x145 +1 x973 +2 x974 +4 x975 +8 x976 +16 x977  = 13 ;

+1 x978 +2 x979 +4 x980 +8 x981 +16 x982  >= 0 ;
+1 x238 +2 x239 +4 x240 +8 x241 +16 x242 -1 x193 -2 x194 -4 x195 -8 x196 -16 x197 +14 x146 +1 x978 +2 x979 +4 x980 +8 x981 +16 x982  = 13 ;

+1 x983 +2 x984 +4 x985 +8 x986 +16 x987  >= 0 ;
+1 x238 +2 x239 +4 x240 +8 x241 +16 x242 -1 x198 -2 x199 -4 x200 -8 x201 -16 x202 +14 x147 +1 x983 +2 x984 +4 x985 +8 x986 +16 x987  = 13 ;

+1 x988 +2 x989 +4 x990 +8 x991 +16 x992  >= 0 ;
+1 x238 +2 x239 +4 x240 +8 x241 +16 x242 -1 x203 -2 x204 -4 x205 -8 x206 -16 x207 +14 x148 +1 x988 +2 x989 +4 x990 +8 x991 +16 x992  = 13 ;

+1 x993 +2 x994 +4 x995 +8 x996 +16 x997  >= 0 ;
+1 x238 +2 x239 +4 x240 +8 x241 +16 x242 -1 x208 -2 x209 -4 x210 -8 x211 -16 x212 +14 x149 +1 x993 +2 x994 +4 x995 +8 x996 +16 x997  = 13 ;

+1 x998 +2 x999 +4 x1000 +8 x1001 +16 x1002  >= 0 ;
+1 x238 +2 x239 +4 x240 +8 x241 +16 x242 -1 x213 -2 x214 -4 x215 -8 x216 -16 x217 +14 x150 +1 x998 +2 x999 +4 x1000 +8 x1001 +16 x1002  = 13 ;

+1 x1003 +2 x1004 +4 x1005 +8 x1006 +16 x1007  >= 0 ;
+1 x238 +2 x239 +4 x240 +8 x241 +16 x242 -1 x218 -2 x219 -4 x220 -8 x221 -16 x222 +14 x151 +1 x1003 +2 x1004 +4 x1005 +8 x1006 +16 x1007  = 13 ;

+1 x1008 +2 x1009 +4 x1010 +8 x1011 +16 x1012  >= 0 ;
+1 x238 +2 x239 +4 x240 +8 x241 +16 x242 -1 x223 -2 x224 -4 x225 -8 x226 -16 x227 +14 x152 +1 x1008 +2 x1009 +4 x1010 +8 x1011 +16 x1012  = 13 ;

+1 x1013 +2 x1014 +4 x1015 +8 x1016 +16 x1017  >= 0 ;
+1 x238 +2 x239 +4 x240 +8 x241 +16 x242 -1 x228 -2 x229 -4 x230 -8 x231 -16 x232 +14 x153 +1 x1013 +2 x1014 +4 x1015 +8 x1016 +16 x1017  = 13 ;

+1 x1018 +2 x1019 +4 x1020 +8 x1021 +16 x1022  >= 0 ;
+1 x238 +2 x239 +4 x240 +8 x241 +16 x242 -1 x233 -2 x234 -4 x235 -8 x236 -16 x237 +14 x154 +1 x1018 +2 x1019 +4 x1020 +8 x1021 +16 x1022  = 13 ;

+1 x1023 +2 x1024 +4 x1025 +8 x1026 +16 x1027  >= 0 ;
+1 x238 +2 x239 +4 x240 +8 x241 +16 x242 -1 x243 -2 x244 -4 x245 -8 x246 -16 x247 +14 x155 +1 x1023 +2 x1024 +4 x1025 +8 x1026 +16 x1027  = 13 ;

+1 x1028 +2 x1029 +4 x1030 +8 x1031 +16 x1032  >= 0 ;
+1 x238 +2 x239 +4 x240 +8 x241 +16 x242 -1 x248 -2 x249 -4 x250 -8 x251 -16 x252 +14 x156 +1 x1028 +2 x1029 +4 x1030 +8 x1031 +16 x1032  = 13 ;

+1 x1033 +2 x1034 +4 x1035 +8 x1036 +16 x1037  >= 0 ;
+1 x243 +2 x244 +4 x245 +8 x246 +16 x247 -1 x183 -2 x184 -4 x185 -8 x186 -16 x187 +14 x157 +1 x1033 +2 x1034 +4 x1035 +8 x1036 +16 x1037  = 13 ;

+1 x1038 +2 x1039 +4 x1040 +8 x1041 +16 x1042  >= 0 ;
+1 x243 +2 x244 +4 x245 +8 x246 +16 x247 -1 x188 -2 x189 -4 x190 -8 x191 -16 x192 +14 x158 +1 x1038 +2 x1039 +4 x1040 +8 x1041 +16 x1042  = 13 ;

+1 x1043 +2 x1044 +4 x1045 +8 x1046 +16 x1047  >= 0 ;
+1 x243 +2 x244 +4 x245 +8 x246 +16 x247 -1 x193 -2 x194 -4 x195 -8 x196 -16 x197 +14 x159 +1 x1043 +2 x1044 +4 x1045 +8 x1046 +16 x1047  = 13 ;

+1 x1048 +2 x1049 +4 x1050 +8 x1051 +16 x1052  >= 0 ;
+1 x243 +2 x244 +4 x245 +8 x246 +16 x247 -1 x198 -2 x199 -4 x200 -8 x201 -16 x202 +14 x160 +1 x1048 +2 x1049 +4 x1050 +8 x1051 +16 x1052  = 13 ;

+1 x1053 +2 x1054 +4 x1055 +8 x1056 +16 x1057  >= 0 ;
+1 x243 +2 x244 +4 x245 +8 x246 +16 x247 -1 x203 -2 x204 -4 x205 -8 x206 -16 x207 +14 x161 +1 x1053 +2 x1054 +4 x1055 +8 x1056 +16 x1057  = 13 ;

+1 x1058 +2 x1059 +4 x1060 +8 x1061 +16 x1062  >= 0 ;
+1 x243 +2 x244 +4 x245 +8 x246 +16 x247 -1 x208 -2 x209 -4 x210 -8 x211 -16 x212 +14 x162 +1 x1058 +2 x1059 +4 x1060 +8 x1061 +16 x1062  = 13 ;

+1 x1063 +2 x1064 +4 x1065 +8 x1066 +16 x1067  >= 0 ;
+1 x243 +2 x244 +4 x245 +8 x246 +16 x247 -1 x213 -2 x214 -4 x215 -8 x216 -16 x217 +14 x163 +1 x1063 +2 x1064 +4 x1065 +8 x1066 +16 x1067  = 13 ;

+1 x1068 +2 x1069 +4 x1070 +8 x1071 +16 x1072  >= 0 ;
+1 x243 +2 x244 +4 x245 +8 x246 +16 x247 -1 x218 -2 x219 -4 x220 -8 x221 -16 x222 +14 x164 +1 x1068 +2 x1069 +4 x1070 +8 x1071 +16 x1072  = 13 ;

+1 x1073 +2 x1074 +4 x1075 +8 x1076 +16 x1077  >= 0 ;
+1 x243 +2 x244 +4 x245 +8 x246 +16 x247 -1 x223 -2 x224 -4 x225 -8 x226 -16 x227 +14 x165 +1 x1073 +2 x1074 +4 x1075 +8 x1076 +16 x1077  = 13 ;

+1 x1078 +2 x1079 +4 x1080 +8 x1081 +16 x1082  >= 0 ;
+1 x243 +2 x244 +4 x245 +8 x246 +16 x247 -1 x228 -2 x229 -4 x230 -8 x231 -16 x232 +14 x166 +1 x1078 +2 x1079 +4 x1080 +8 x1081 +16 x1082  = 13 ;

+1 x1083 +2 x1084 +4 x1085 +8 x1086 +16 x1087  >= 0 ;
+1 x243 +2 x244 +4 x245 +8 x246 +16 x247 -1 x233 -2 x234 -4 x235 -8 x236 -16 x237 +14 x167 +1 x1083 +2 x1084 +4 x1085 +8 x1086 +16 x1087  = 13 ;

+1 x1088 +2 x1089 +4 x1090 +8 x1091 +16 x1092  >= 0 ;
+1 x243 +2 x244 +4 x245 +8 x246 +16 x247 -1 x238 -2 x239 -4 x240 -8 x241 -16 x242 +14 x168 +1 x1088 +2 x1089 +4 x1090 +8 x1091 +16 x1092  = 13 ;

+1 x1093 +2 x1094 +4 x1095 +8 x1096 +16 x1097  >= 0 ;
+1 x243 +2 x244 +4 x245 +8 x246 +16 x247 -1 x248 -2 x249 -4 x250 -8 x251 -16 x252 +14 x169 +1 x1093 +2 x1094 +4 x1095 +8 x1096 +16 x1097  = 13 ;